data/rand/rand_080.gr
p tdp 15 51
1 2
1 4
1 5
1 6
1 7
1 8
1 11
2 3
2 5
2 7
2 12
2 13
2 14
3 4
3 7
3 8
3 9
3 12
3 15
4 6
4 7
4 8
4 10
4 11
4 12
4 13
5 6
5 7
5 9
5 10
5 12
5 13
5 14
5 15
6 7
6 10
6 11
6 14
7 10
7 11
7 12
7 13
7 14
8 10
8 13
9 13
9 15
10 12
11 15
12 14
14 15
