solutions/best/rand/rand_080.sol
10
0
1
9
2
15
5
4
7
5
6
6
8
9
6
12
